%mem=8GB
#p hf/sto-3g nosymm iop1=timestamp scf=(incore,novaracc) integral=acc2e=10

d

0 1
 H  0                0.00000000    0.00000000    0.00000000
 H  0                1.50000000    0.00000000    0.00000000
 H  0                3.00000000    0.00000000    0.00000000
 H  0                4.50000000    0.00000000    0.00000000
 H  0                6.00000000    0.00000000    0.00000000
 H  0                7.50000000    0.00000000    0.00000000
 H  0                9.00000000    0.00000000    0.00000000
 H  0               10.50000000    0.00000000    0.00000000
 H  0               12.00000000    0.00000000    0.00000000
 H  0               13.50000000    0.00000000    0.00000000
 H  0                0.00000000    1.50000000    0.00000000
 H  0                0.00000000    3.00000000    0.00000000
 H  0                0.00000000    4.50000000    0.00000000
 H  0                0.00000000    6.00000000    0.00000000
 H  0                0.00000000    7.50000000    0.00000000
 H  0                0.00000000    9.00000000    0.00000000
 H  0                0.00000000   10.50000000    0.00000000
 H  0                0.00000000   12.00000000    0.00000000
 H  0                0.00000000   13.50000000    0.00000000
 H  0                1.50000000    1.50000000    0.00000000
 H  0                1.50000000    3.00000000    0.00000000
 H  0                1.50000000    4.50000000    0.00000000
 H  0                1.50000000    6.00000000    0.00000000
 H  0                1.50000000    7.50000000    0.00000000
 H  0                1.50000000    9.00000000    0.00000000
 H  0                1.50000000   10.50000000    0.00000000
 H  0                1.50000000   12.00000000    0.00000000
 H  0                1.50000000   13.50000000    0.00000000
 H  0                3.00000000    1.50000000    0.00000000
 H  0                3.00000000    3.00000000    0.00000000
 H  0                3.00000000    4.50000000    0.00000000
 H  0                3.00000000    6.00000000    0.00000000
 H  0                3.00000000    7.50000000    0.00000000
 H  0                3.00000000    9.00000000    0.00000000
 H  0                3.00000000   10.50000000    0.00000000
 H  0                3.00000000   12.00000000    0.00000000
 H  0                3.00000000   13.50000000    0.00000000
 H  0                4.50000000    1.50000000    0.00000000
 H  0                4.50000000    3.00000000    0.00000000
 H  0                4.50000000    4.50000000    0.00000000
 H  0                4.50000000    6.00000000    0.00000000
 H  0                4.50000000    7.50000000    0.00000000
 H  0                4.50000000    9.00000000    0.00000000
 H  0                4.50000000   10.50000000    0.00000000
 H  0                4.50000000   12.00000000    0.00000000
 H  0                4.50000000   13.50000000    0.00000000
 H  0                6.00000000    1.50000000    0.00000000
 H  0                6.00000000    3.00000000    0.00000000
 H  0                6.00000000    4.50000000    0.00000000
 H  0                6.00000000    6.00000000    0.00000000
 H  0                6.00000000    7.50000000    0.00000000
 H  0                6.00000000    9.00000000    0.00000000
 H  0                6.00000000   10.50000000    0.00000000
 H  0                6.00000000   12.00000000    0.00000000
 H  0                6.00000000   13.50000000    0.00000000
 H  0                7.50000000    1.50000000    0.00000000
 H  0                7.50000000    3.00000000    0.00000000
 H  0                7.50000000    4.50000000    0.00000000
 H  0                7.50000000    6.00000000    0.00000000
 H  0                7.50000000    7.50000000    0.00000000
 H  0                7.50000000    9.00000000    0.00000000
 H  0                7.50000000   10.50000000    0.00000000
 H  0                7.50000000   12.00000000    0.00000000
 H  0                7.50000000   13.50000000    0.00000000
 H  0                9.00000000    1.50000000    0.00000000
 H  0                9.00000000    3.00000000    0.00000000
 H  0                9.00000000    4.50000000    0.00000000
 H  0                9.00000000    6.00000000    0.00000000
 H  0                9.00000000    7.50000000    0.00000000
 H  0                9.00000000    9.00000000    0.00000000
 H  0                9.00000000   10.50000000    0.00000000
 H  0                9.00000000   12.00000000    0.00000000
 H  0                9.00000000   13.50000000    0.00000000
 H  0               10.50000000    1.50000000    0.00000000
 H  0               10.50000000    3.00000000    0.00000000
 H  0               10.50000000    4.50000000    0.00000000
 H  0               10.50000000    6.00000000    0.00000000
 H  0               10.50000000    7.50000000    0.00000000
 H  0               10.50000000    9.00000000    0.00000000
 H  0               10.50000000   10.50000000    0.00000000
 H  0               10.50000000   12.00000000    0.00000000
 H  0               10.50000000   13.50000000    0.00000000
 H  0               12.00000000    1.50000000    0.00000000
 H  0               12.00000000    3.00000000    0.00000000
 H  0               12.00000000    4.50000000    0.00000000
 H  0               12.00000000    6.00000000    0.00000000
 H  0               12.00000000    7.50000000    0.00000000
 H  0               12.00000000    9.00000000    0.00000000
 H  0               12.00000000   10.50000000    0.00000000
 H  0               12.00000000   12.00000000    0.00000000
 H  0               12.00000000   13.50000000    0.00000000
 H  0               13.50000000    1.50000000    0.00000000
 H  0               13.50000000    3.00000000    0.00000000
 H  0               13.50000000    4.50000000    0.00000000
 H  0               13.50000000    6.00000000    0.00000000
 H  0               13.50000000    7.50000000    0.00000000
 H  0               13.50000000    9.00000000    0.00000000
 H  0               13.50000000   10.50000000    0.00000000
 H  0               13.50000000   12.00000000    0.00000000
 H  0               13.50000000   13.50000000    0.00000000
 H  0                0.00000000    0.00000000    1.50000000
 H  0                0.00000000    0.00000000    3.00000000
 H  0                0.00000000    0.00000000    4.50000000
 H  0                0.00000000    0.00000000    6.00000000
 H  0                0.00000000    0.00000000    7.50000000
 H  0                0.00000000    0.00000000    9.00000000
 H  0                0.00000000    0.00000000   10.50000000
 H  0                0.00000000    0.00000000   12.00000000
 H  0                0.00000000    0.00000000   13.50000000
 H  0                1.50000000    0.00000000    1.50000000
 H  0                1.50000000    0.00000000    3.00000000
 H  0                1.50000000    0.00000000    4.50000000
 H  0                1.50000000    0.00000000    6.00000000
 H  0                1.50000000    0.00000000    7.50000000
 H  0                1.50000000    0.00000000    9.00000000
 H  0                1.50000000    0.00000000   10.50000000
 H  0                1.50000000    0.00000000   12.00000000
 H  0                1.50000000    0.00000000   13.50000000
 H  0                3.00000000    0.00000000    1.50000000
 H  0                3.00000000    0.00000000    3.00000000
 H  0                3.00000000    0.00000000    4.50000000
 H  0                3.00000000    0.00000000    6.00000000
 H  0                3.00000000    0.00000000    7.50000000
 H  0                3.00000000    0.00000000    9.00000000
 H  0                3.00000000    0.00000000   10.50000000
 H  0                3.00000000    0.00000000   12.00000000
 H  0                3.00000000    0.00000000   13.50000000
 H  0                4.50000000    0.00000000    1.50000000
 H  0                4.50000000    0.00000000    3.00000000
 H  0                4.50000000    0.00000000    4.50000000
 H  0                4.50000000    0.00000000    6.00000000
 H  0                4.50000000    0.00000000    7.50000000
 H  0                4.50000000    0.00000000    9.00000000
 H  0                4.50000000    0.00000000   10.50000000
 H  0                4.50000000    0.00000000   12.00000000
 H  0                4.50000000    0.00000000   13.50000000
 H  0                6.00000000    0.00000000    1.50000000
 H  0                6.00000000    0.00000000    3.00000000
 H  0                6.00000000    0.00000000    4.50000000
 H  0                6.00000000    0.00000000    6.00000000
 H  0                6.00000000    0.00000000    7.50000000
 H  0                6.00000000    0.00000000    9.00000000
 H  0                6.00000000    0.00000000   10.50000000
 H  0                6.00000000    0.00000000   12.00000000
 H  0                6.00000000    0.00000000   13.50000000
 H  0                7.50000000    0.00000000    1.50000000
 H  0                7.50000000    0.00000000    3.00000000
 H  0                7.50000000    0.00000000    4.50000000
 H  0                7.50000000    0.00000000    6.00000000
 H  0                7.50000000    0.00000000    7.50000000
 H  0                7.50000000    0.00000000    9.00000000
 H  0                7.50000000    0.00000000   10.50000000
 H  0                7.50000000    0.00000000   12.00000000
 H  0                7.50000000    0.00000000   13.50000000
 H  0                9.00000000    0.00000000    1.50000000
 H  0                9.00000000    0.00000000    3.00000000
 H  0                9.00000000    0.00000000    4.50000000
 H  0                9.00000000    0.00000000    6.00000000
 H  0                9.00000000    0.00000000    7.50000000
 H  0                9.00000000    0.00000000    9.00000000
 H  0                9.00000000    0.00000000   10.50000000
 H  0                9.00000000    0.00000000   12.00000000
 H  0                9.00000000    0.00000000   13.50000000
 H  0               10.50000000    0.00000000    1.50000000
 H  0               10.50000000    0.00000000    3.00000000
 H  0               10.50000000    0.00000000    4.50000000
 H  0               10.50000000    0.00000000    6.00000000
 H  0               10.50000000    0.00000000    7.50000000
 H  0               10.50000000    0.00000000    9.00000000
 H  0               10.50000000    0.00000000   10.50000000
 H  0               10.50000000    0.00000000   12.00000000
 H  0               10.50000000    0.00000000   13.50000000
 H  0               12.00000000    0.00000000    1.50000000
 H  0               12.00000000    0.00000000    3.00000000
 H  0               12.00000000    0.00000000    4.50000000
 H  0               12.00000000    0.00000000    6.00000000
 H  0               12.00000000    0.00000000    7.50000000
 H  0               12.00000000    0.00000000    9.00000000
 H  0               12.00000000    0.00000000   10.50000000
 H  0               12.00000000    0.00000000   12.00000000
 H  0               12.00000000    0.00000000   13.50000000
 H  0               13.50000000    0.00000000    1.50000000
 H  0               13.50000000    0.00000000    3.00000000
 H  0               13.50000000    0.00000000    4.50000000
 H  0               13.50000000    0.00000000    6.00000000
 H  0               13.50000000    0.00000000    7.50000000
 H  0               13.50000000    0.00000000    9.00000000
 H  0               13.50000000    0.00000000   10.50000000
 H  0               13.50000000    0.00000000   12.00000000
 H  0               13.50000000    0.00000000   13.50000000
 H  0                0.00000000    1.50000000    1.50000000
 H  0                0.00000000    1.50000000    3.00000000
 H  0                0.00000000    1.50000000    4.50000000
 H  0                0.00000000    1.50000000    6.00000000
 H  0                0.00000000    1.50000000    7.50000000
 H  0                0.00000000    1.50000000    9.00000000
 H  0                0.00000000    1.50000000   10.50000000
 H  0                0.00000000    1.50000000   12.00000000
 H  0                0.00000000    1.50000000   13.50000000
 H  0                0.00000000    3.00000000    1.50000000
 H  0                0.00000000    3.00000000    3.00000000
 H  0                0.00000000    3.00000000    4.50000000
 H  0                0.00000000    3.00000000    6.00000000
 H  0                0.00000000    3.00000000    7.50000000
 H  0                0.00000000    3.00000000    9.00000000
 H  0                0.00000000    3.00000000   10.50000000
 H  0                0.00000000    3.00000000   12.00000000
 H  0                0.00000000    3.00000000   13.50000000
 H  0                0.00000000    4.50000000    1.50000000
 H  0                0.00000000    4.50000000    3.00000000
 H  0                0.00000000    4.50000000    4.50000000
 H  0                0.00000000    4.50000000    6.00000000
 H  0                0.00000000    4.50000000    7.50000000
 H  0                0.00000000    4.50000000    9.00000000
 H  0                0.00000000    4.50000000   10.50000000
 H  0                0.00000000    4.50000000   12.00000000
 H  0                0.00000000    4.50000000   13.50000000
 H  0                0.00000000    6.00000000    1.50000000
 H  0                0.00000000    6.00000000    3.00000000
 H  0                0.00000000    6.00000000    4.50000000
 H  0                0.00000000    6.00000000    6.00000000
 H  0                0.00000000    6.00000000    7.50000000
 H  0                0.00000000    6.00000000    9.00000000
 H  0                0.00000000    6.00000000   10.50000000
 H  0                0.00000000    6.00000000   12.00000000
 H  0                0.00000000    6.00000000   13.50000000
 H  0                0.00000000    7.50000000    1.50000000
 H  0                0.00000000    7.50000000    3.00000000
 H  0                0.00000000    7.50000000    4.50000000
 H  0                0.00000000    7.50000000    6.00000000
 H  0                0.00000000    7.50000000    7.50000000
 H  0                0.00000000    7.50000000    9.00000000
 H  0                0.00000000    7.50000000   10.50000000
 H  0                0.00000000    7.50000000   12.00000000
 H  0                0.00000000    7.50000000   13.50000000
 H  0                0.00000000    9.00000000    1.50000000
 H  0                0.00000000    9.00000000    3.00000000
 H  0                0.00000000    9.00000000    4.50000000
 H  0                0.00000000    9.00000000    6.00000000
 H  0                0.00000000    9.00000000    7.50000000
 H  0                0.00000000    9.00000000    9.00000000
 H  0                0.00000000    9.00000000   10.50000000
 H  0                0.00000000    9.00000000   12.00000000
 H  0                0.00000000    9.00000000   13.50000000
 H  0                0.00000000   10.50000000    1.50000000
 H  0                0.00000000   10.50000000    3.00000000
 H  0                0.00000000   10.50000000    4.50000000
 H  0                0.00000000   10.50000000    6.00000000
 H  0                0.00000000   10.50000000    7.50000000
 H  0                0.00000000   10.50000000    9.00000000



 H  0                0.00000000   10.50000000   10.50000000
 H  0                0.00000000   10.50000000   12.00000000
 H  0                0.00000000   10.50000000   13.50000000
 H  0                0.00000000   12.00000000    1.50000000
 H  0                0.00000000   12.00000000    3.00000000
 H  0                0.00000000   12.00000000    4.50000000
 H  0                0.00000000   12.00000000    6.00000000
 H  0                0.00000000   12.00000000    7.50000000
 H  0                0.00000000   12.00000000    9.00000000
 H  0                0.00000000   12.00000000   10.50000000
 H  0                0.00000000   12.00000000   12.00000000
 H  0                0.00000000   12.00000000   13.50000000
 H  0                0.00000000   13.50000000    1.50000000
 H  0                0.00000000   13.50000000    3.00000000
 H  0                0.00000000   13.50000000    4.50000000
 H  0                0.00000000   13.50000000    6.00000000
 H  0                0.00000000   13.50000000    7.50000000
 H  0                0.00000000   13.50000000    9.00000000
 H  0                0.00000000   13.50000000   10.50000000
 H  0                0.00000000   13.50000000   12.00000000
 H  0                0.00000000   13.50000000   13.50000000
 H  0                1.50000000    1.50000000    1.50000000
 H  0                1.50000000    1.50000000    3.00000000
 H  0                1.50000000    1.50000000    4.50000000
 H  0                1.50000000    1.50000000    6.00000000
 H  0                1.50000000    1.50000000    7.50000000
 H  0                1.50000000    1.50000000    9.00000000
 H  0                1.50000000    1.50000000   10.50000000
 H  0                1.50000000    1.50000000   12.00000000
 H  0                1.50000000    1.50000000   13.50000000
 H  0                1.50000000    3.00000000    1.50000000
 H  0                1.50000000    3.00000000    3.00000000
 H  0                1.50000000    3.00000000    4.50000000
 H  0                1.50000000    3.00000000    6.00000000
 H  0                1.50000000    3.00000000    7.50000000
 H  0                1.50000000    3.00000000    9.00000000
 H  0                1.50000000    3.00000000   10.50000000
 H  0                1.50000000    3.00000000   12.00000000
 H  0                1.50000000    3.00000000   13.50000000
 H  0                1.50000000    4.50000000    1.50000000
 H  0                1.50000000    4.50000000    3.00000000
 H  0                1.50000000    4.50000000    4.50000000
 H  0                1.50000000    4.50000000    6.00000000
 H  0                1.50000000    4.50000000    7.50000000
 H  0                1.50000000    4.50000000    9.00000000
 H  0                1.50000000    4.50000000   10.50000000
 H  0                1.50000000    4.50000000   12.00000000
 H  0                1.50000000    4.50000000   13.50000000
 H  0                1.50000000    6.00000000    1.50000000
 H  0                1.50000000    6.00000000    3.00000000
 H  0                1.50000000    6.00000000    4.50000000
 H  0                1.50000000    6.00000000    6.00000000
 H  0                1.50000000    6.00000000    7.50000000
 H  0                1.50000000    6.00000000    9.00000000
 H  0                1.50000000    6.00000000   10.50000000
 H  0                1.50000000    6.00000000   12.00000000
 H  0                1.50000000    6.00000000   13.50000000
 H  0                1.50000000    7.50000000    1.50000000
 H  0                1.50000000    7.50000000    3.00000000
 H  0                1.50000000    7.50000000    4.50000000
 H  0                1.50000000    7.50000000    6.00000000
 H  0                1.50000000    7.50000000    7.50000000
 H  0                1.50000000    7.50000000    9.00000000
 H  0                1.50000000    7.50000000   10.50000000
 H  0                1.50000000    7.50000000   12.00000000
 H  0                1.50000000    7.50000000   13.50000000
 H  0                1.50000000    9.00000000    1.50000000
 H  0                1.50000000    9.00000000    3.00000000
 H  0                1.50000000    9.00000000    4.50000000
 H  0                1.50000000    9.00000000    6.00000000
 H  0                1.50000000    9.00000000    7.50000000
 H  0                1.50000000    9.00000000    9.00000000
 H  0                1.50000000    9.00000000   10.50000000
 H  0                1.50000000    9.00000000   12.00000000
 H  0                1.50000000    9.00000000   13.50000000
 H  0                1.50000000   10.50000000    1.50000000
 H  0                1.50000000   10.50000000    3.00000000
 H  0                1.50000000   10.50000000    4.50000000
 H  0                1.50000000   10.50000000    6.00000000
 H  0                1.50000000   10.50000000    7.50000000
 H  0                1.50000000   10.50000000    9.00000000
 H  0                1.50000000   10.50000000   10.50000000
 H  0                1.50000000   10.50000000   12.00000000
 H  0                1.50000000   10.50000000   13.50000000
 H  0                1.50000000   12.00000000    1.50000000
 H  0                1.50000000   12.00000000    3.00000000
 H  0                1.50000000   12.00000000    4.50000000
 H  0                1.50000000   12.00000000    6.00000000
 H  0                1.50000000   12.00000000    7.50000000
 H  0                1.50000000   12.00000000    9.00000000
 H  0                1.50000000   12.00000000   10.50000000
 H  0                1.50000000   12.00000000   12.00000000
 H  0                1.50000000   12.00000000   13.50000000
 H  0                1.50000000   13.50000000    1.50000000
 H  0                1.50000000   13.50000000    3.00000000
 H  0                1.50000000   13.50000000    4.50000000
 H  0                1.50000000   13.50000000    6.00000000
 H  0                1.50000000   13.50000000    7.50000000
 H  0                1.50000000   13.50000000    9.00000000
 H  0                1.50000000   13.50000000   10.50000000
 H  0                1.50000000   13.50000000   12.00000000
 H  0                1.50000000   13.50000000   13.50000000
 H  0                3.00000000    1.50000000    1.50000000
 H  0                3.00000000    1.50000000    3.00000000
 H  0                3.00000000    1.50000000    4.50000000
 H  0                3.00000000    1.50000000    6.00000000
 H  0                3.00000000    1.50000000    7.50000000
 H  0                3.00000000    1.50000000    9.00000000
 H  0                3.00000000    1.50000000   10.50000000
 H  0                3.00000000    1.50000000   12.00000000
 H  0                3.00000000    1.50000000   13.50000000
 H  0                3.00000000    3.00000000    1.50000000
 H  0                3.00000000    3.00000000    3.00000000
 H  0                3.00000000    3.00000000    4.50000000
 H  0                3.00000000    3.00000000    6.00000000
 H  0                3.00000000    3.00000000    7.50000000
 H  0                3.00000000    3.00000000    9.00000000
 H  0                3.00000000    3.00000000   10.50000000
 H  0                3.00000000    3.00000000   12.00000000
 H  0                3.00000000    3.00000000   13.50000000
 H  0                3.00000000    4.50000000    1.50000000
 H  0                3.00000000    4.50000000    3.00000000
 H  0                3.00000000    4.50000000    4.50000000
 H  0                3.00000000    4.50000000    6.00000000
 H  0                3.00000000    4.50000000    7.50000000
 H  0                3.00000000    4.50000000    9.00000000
 H  0                3.00000000    4.50000000   10.50000000
 H  0                3.00000000    4.50000000   12.00000000
 H  0                3.00000000    4.50000000   13.50000000
 H  0                3.00000000    6.00000000    1.50000000
 H  0                3.00000000    6.00000000    3.00000000
 H  0                3.00000000    6.00000000    4.50000000
 H  0                3.00000000    6.00000000    6.00000000
 H  0                3.00000000    6.00000000    7.50000000
 H  0                3.00000000    6.00000000    9.00000000
 H  0                3.00000000    6.00000000   10.50000000
 H  0                3.00000000    6.00000000   12.00000000
 H  0                3.00000000    6.00000000   13.50000000
 H  0                3.00000000    7.50000000    1.50000000
 H  0                3.00000000    7.50000000    3.00000000
 H  0                3.00000000    7.50000000    4.50000000
 H  0                3.00000000    7.50000000    6.00000000
 H  0                3.00000000    7.50000000    7.50000000
 H  0                3.00000000    7.50000000    9.00000000
 H  0                3.00000000    7.50000000   10.50000000
 H  0                3.00000000    7.50000000   12.00000000
 H  0                3.00000000    7.50000000   13.50000000
 H  0                3.00000000    9.00000000    1.50000000
 H  0                3.00000000    9.00000000    3.00000000
 H  0                3.00000000    9.00000000    4.50000000
 H  0                3.00000000    9.00000000    6.00000000
 H  0                3.00000000    9.00000000    7.50000000
 H  0                3.00000000    9.00000000    9.00000000
 H  0                3.00000000    9.00000000   10.50000000
 H  0                3.00000000    9.00000000   12.00000000
 H  0                3.00000000    9.00000000   13.50000000
 H  0                3.00000000   10.50000000    1.50000000
 H  0                3.00000000   10.50000000    3.00000000
 H  0                3.00000000   10.50000000    4.50000000
 H  0                3.00000000   10.50000000    6.00000000
 H  0                3.00000000   10.50000000    7.50000000
 H  0                3.00000000   10.50000000    9.00000000
 H  0                3.00000000   10.50000000   10.50000000
 H  0                3.00000000   10.50000000   12.00000000
 H  0                3.00000000   10.50000000   13.50000000
 H  0                3.00000000   12.00000000    1.50000000
 H  0                3.00000000   12.00000000    3.00000000
 H  0                3.00000000   12.00000000    4.50000000
 H  0                3.00000000   12.00000000    6.00000000
 H  0                3.00000000   12.00000000    7.50000000
 H  0                3.00000000   12.00000000    9.00000000
 H  0                3.00000000   12.00000000   10.50000000
 H  0                3.00000000   12.00000000   12.00000000
 H  0                3.00000000   12.00000000   13.50000000
 H  0                3.00000000   13.50000000    1.50000000
 H  0                3.00000000   13.50000000    3.00000000
 H  0                3.00000000   13.50000000    4.50000000
 H  0                3.00000000   13.50000000    6.00000000
 H  0                3.00000000   13.50000000    7.50000000
 H  0                3.00000000   13.50000000    9.00000000
 H  0                3.00000000   13.50000000   10.50000000
 H  0                3.00000000   13.50000000   12.00000000
 H  0                3.00000000   13.50000000   13.50000000
 H  0                4.50000000    1.50000000    1.50000000
 H  0                4.50000000    1.50000000    3.00000000
 H  0                4.50000000    1.50000000    4.50000000
 H  0                4.50000000    1.50000000    6.00000000
 H  0                4.50000000    1.50000000    7.50000000
 H  0                4.50000000    1.50000000    9.00000000
 H  0                4.50000000    1.50000000   10.50000000
 H  0                4.50000000    1.50000000   12.00000000
 H  0                4.50000000    1.50000000   13.50000000
 H  0                4.50000000    3.00000000    1.50000000
 H  0                4.50000000    3.00000000    3.00000000
 H  0                4.50000000    3.00000000    4.50000000
 H  0                4.50000000    3.00000000    6.00000000
 H  0                4.50000000    3.00000000    7.50000000
 H  0                4.50000000    3.00000000    9.00000000
 H  0                4.50000000    3.00000000   10.50000000
 H  0                4.50000000    3.00000000   12.00000000
 H  0                4.50000000    3.00000000   13.50000000
 H  0                4.50000000    4.50000000    1.50000000
 H  0                4.50000000    4.50000000    3.00000000
 H  0                4.50000000    4.50000000    4.50000000
 H  0                4.50000000    4.50000000    6.00000000
 H  0                4.50000000    4.50000000    7.50000000
 H  0                4.50000000    4.50000000    9.00000000
 H  0                4.50000000    4.50000000   10.50000000
 H  0                4.50000000    4.50000000   12.00000000
 H  0                4.50000000    4.50000000   13.50000000
 H  0                4.50000000    6.00000000    1.50000000
 H  0                4.50000000    6.00000000    3.00000000
 H  0                4.50000000    6.00000000    4.50000000
 H  0                4.50000000    6.00000000    6.00000000
 H  0                4.50000000    6.00000000    7.50000000
 H  0                4.50000000    6.00000000    9.00000000
 H  0                4.50000000    6.00000000   10.50000000
 H  0                4.50000000    6.00000000   12.00000000
 H  0                4.50000000    6.00000000   13.50000000
 H  0                4.50000000    7.50000000    1.50000000
 H  0                4.50000000    7.50000000    3.00000000
 H  0                4.50000000    7.50000000    4.50000000
 H  0                4.50000000    7.50000000    6.00000000
 H  0                4.50000000    7.50000000    7.50000000
 H  0                4.50000000    7.50000000    9.00000000
 H  0                4.50000000    7.50000000   10.50000000
 H  0                4.50000000    7.50000000   12.00000000
 H  0                4.50000000    7.50000000   13.50000000
 H  0                4.50000000    9.00000000    1.50000000
 H  0                4.50000000    9.00000000    3.00000000
 H  0                4.50000000    9.00000000    4.50000000
 H  0                4.50000000    9.00000000    6.00000000
 H  0                4.50000000    9.00000000    7.50000000
 H  0                4.50000000    9.00000000    9.00000000
 H  0                4.50000000    9.00000000   10.50000000
 H  0                4.50000000    9.00000000   12.00000000
 H  0                4.50000000    9.00000000   13.50000000
 H  0                4.50000000   10.50000000    1.50000000
 H  0                4.50000000   10.50000000    3.00000000
 H  0                4.50000000   10.50000000    4.50000000
 H  0                4.50000000   10.50000000    6.00000000
 H  0                4.50000000   10.50000000    7.50000000
 H  0                4.50000000   10.50000000    9.00000000
 H  0                4.50000000   10.50000000   10.50000000
 H  0                4.50000000   10.50000000   12.00000000
 H  0                4.50000000   10.50000000   13.50000000
 H  0                4.50000000   12.00000000    1.50000000
 H  0                4.50000000   12.00000000    3.00000000