#p hf/cc-pVDZ gfinput pop=full nosymm 6D  Field=X-100

Water cc-pVDZ 

0 1
O   0.000000000 -0.07579184359 0.0
H   0.866811829  0.6014357793  0.0
H  -0.866811829  0.6014357793  0.0

