#p hf/sto-3g gfinput pop=full nosymm cis(full,nstates=12,50-50)

Water STO-3G

0 1
O   0.000000000 -0.07579184359 0.0
H   0.866811829  0.6014357793  0.0
H  -0.866811829  0.6014357793  0.0

