#p uhf/6-31G nosymm  Field=X-100

Li  6-31G

0 2
Li 0.000000    0.000000    0.000000


