#p uhf/6-31G nosymm td(full,nstates=12,50-50)

Li  6-31G

0 2
Li 0.000000    0.000000    0.000000


