#p uhf/cc-pVDZ nosymm 6D  Field=X-100

Li  cc-pVDZ

0 2
Li 0.000000    0.000000    0.000000


