#p uhf/cc-pVDZ nosymm cis(full,nstates=12,50-50)

Li  cc-pVDZ

0 2
Li 0.000000    0.000000    0.000000


