#p uhf/cc-pVDZ nosymm

Li  cc-pVDZ

0 2
Li 0.000000    0.000000    0.000000


