#p uhf/sto-3g nosymm

Li  STO-3G

0 2
Li 0.000000    0.000000    0.000000


