#p uhf/sto-3g nosymm td(full,nstates=12,50-50)

Li  STO-3G

0 2
Li 0.000000    0.000000    0.000000


