#p uhf/6-31G nosymm

MnO2  6-31G

0 4
Mn 0.000000    0.000000    0.000000
O  0.000000    0.000000    1.840528
O  0.000000    0.000000   -1.840528

