#p uhf/6-31G nosymm cis(full,nstates=12,50-50)

MnO2  6-31G

0 4
Mn 0.000000    0.000000    0.000000
O  0.000000    0.000000    1.840528
O  0.000000    0.000000   -1.840528

