#p rohf/cc-pVDZ nosymm

MnO2  cc-pVDZ

0 4
Mn 0.000000    0.000000    0.000000
O  0.000000    0.000000    1.840528
O  0.000000    0.000000   -1.840528

