#p uhf/6-31G gfinput pop=full nosymm  Field=X-100

O2 6-31G

0 3
O 0.000000    0.000000    0.608586
O 0.000000    0.000000    -0.608586

