#p uhf/cc-pVDZ gfinput pop=full nosymm 6D  Field=X-100

O2 cc-pVDZ

0 3
O 0.000000    0.000000    0.608586
O 0.000000    0.000000    -0.608586

