#p uhf/cc-pVDZ gfinput pop=full nosymm td(full,nstates=12,50-50) 6D

O2 cc-pVDZ

0 3
O 0.000000    0.000000    0.608586
O 0.000000    0.000000    -0.608586

