#p uhf/cc-pVDZ gfinput pop=full nosymm cis(full,nstates=12,50-50)

O2 cc-pVDZ

0 3
O 0.000000    0.000000    0.608586
O 0.000000    0.000000    -0.608586

