#p crhf/sto-3g gfinput pop=full nosymm

O2 STO-3G Complex RHF

0 1
O 0.000000    0.000000    0.608586
O 0.000000    0.000000    -0.608586

