#p rohf/sto-3g gfinput pop=full nosymm

O2 STO-3G

0 3
O 0.000000    0.000000    0.608586
O 0.000000    0.000000    -0.608586

