%kjob l303
%mem=1000mb
%subst l302 .
#p hf/sto-3g nosymm 6d iop(3/1=123456)

d

0 1
 C                  0.00000000    0.00000000    0.00000000
 C                  1.50000000    0.00000000    0.00000000
 C                  3.00000000    0.00000000    0.00000000
 C                  4.50000000    0.00000000    0.00000000
 C                  6.00000000    0.00000000    0.00000000
 C                  7.50000000    0.00000000    0.00000000
 C                  9.00000000    0.00000000    0.00000000
 C                 10.50000000    0.00000000    0.00000000
 C                 12.00000000    0.00000000    0.00000000
 C                 13.50000000    0.00000000    0.00000000
 C                  0.00000000    1.50000000    0.00000000
 C                  0.00000000    3.00000000    0.00000000
 C                  0.00000000    4.50000000    0.00000000
 C                  0.00000000    6.00000000    0.00000000
 C                  0.00000000    7.50000000    0.00000000
 C                  0.00000000    9.00000000    0.00000000
 C                  0.00000000   10.50000000    0.00000000
 C                  0.00000000   12.00000000    0.00000000
 C                  0.00000000   13.50000000    0.00000000
 C                  1.50000000    1.50000000    0.00000000
 C                  1.50000000    3.00000000    0.00000000
 C                  1.50000000    4.50000000    0.00000000
 C                  1.50000000    6.00000000    0.00000000
 C                  1.50000000    7.50000000    0.00000000
 C                  1.50000000    9.00000000    0.00000000
 C                  1.50000000   10.50000000    0.00000000
 C                  1.50000000   12.00000000    0.00000000
 C                  1.50000000   13.50000000    0.00000000
 C                  3.00000000    1.50000000    0.00000000
 C                  3.00000000    3.00000000    0.00000000
 C                  3.00000000    4.50000000    0.00000000
 C                  3.00000000    6.00000000    0.00000000
 C                  3.00000000    7.50000000    0.00000000
 C                  3.00000000    9.00000000    0.00000000
 C                  3.00000000   10.50000000    0.00000000
 C                  3.00000000   12.00000000    0.00000000
 C                  3.00000000   13.50000000    0.00000000
 C                  4.50000000    1.50000000    0.00000000
 C                  4.50000000    3.00000000    0.00000000
 C                  4.50000000    4.50000000    0.00000000
 C                  4.50000000    6.00000000    0.00000000
 C                  4.50000000    7.50000000    0.00000000
 C                  4.50000000    9.00000000    0.00000000
 C                  4.50000000   10.50000000    0.00000000
 C                  4.50000000   12.00000000    0.00000000
 C                  4.50000000   13.50000000    0.00000000
 C                  6.00000000    1.50000000    0.00000000
 C                  6.00000000    3.00000000    0.00000000
 C                  6.00000000    4.50000000    0.00000000
 C                  6.00000000    6.00000000    0.00000000
 C                  6.00000000    7.50000000    0.00000000
 C                  6.00000000    9.00000000    0.00000000
 C                  6.00000000   10.50000000    0.00000000
 C                  6.00000000   12.00000000    0.00000000
 C                  6.00000000   13.50000000    0.00000000
 C                  7.50000000    1.50000000    0.00000000
 C                  7.50000000    3.00000000    0.00000000
 C                  7.50000000    4.50000000    0.00000000
 C                  7.50000000    6.00000000    0.00000000
 C                  7.50000000    7.50000000    0.00000000
 C                  7.50000000    9.00000000    0.00000000
 C                  7.50000000   10.50000000    0.00000000
 C                  7.50000000   12.00000000    0.00000000
 C                  7.50000000   13.50000000    0.00000000
 C                  9.00000000    1.50000000    0.00000000
 C                  9.00000000    3.00000000    0.00000000
 C                  9.00000000    4.50000000    0.00000000
 C                  9.00000000    6.00000000    0.00000000
 C                  9.00000000    7.50000000    0.00000000
 C                  9.00000000    9.00000000    0.00000000
 C                  9.00000000   10.50000000    0.00000000
 C                  9.00000000   12.00000000    0.00000000
 C                  9.00000000   13.50000000    0.00000000
 C                 10.50000000    1.50000000    0.00000000
 C                 10.50000000    3.00000000    0.00000000
 C                 10.50000000    4.50000000    0.00000000
 C                 10.50000000    6.00000000    0.00000000
 C                 10.50000000    7.50000000    0.00000000
 C                 10.50000000    9.00000000    0.00000000
 C                 10.50000000   10.50000000    0.00000000
 C                 10.50000000   12.00000000    0.00000000
 C                 10.50000000   13.50000000    0.00000000
 C                 12.00000000    1.50000000    0.00000000
 C                 12.00000000    3.00000000    0.00000000
 C                 12.00000000    4.50000000    0.00000000
 C                 12.00000000    6.00000000    0.00000000
 C                 12.00000000    7.50000000    0.00000000
 C                 12.00000000    9.00000000    0.00000000
 C                 12.00000000   10.50000000    0.00000000
 C                 12.00000000   12.00000000    0.00000000
 C                 12.00000000   13.50000000    0.00000000
 C                 13.50000000    1.50000000    0.00000000
 C                 13.50000000    3.00000000    0.00000000
 C                 13.50000000    4.50000000    0.00000000
 C                 13.50000000    6.00000000    0.00000000
 C                 13.50000000    7.50000000    0.00000000
 C                 13.50000000    9.00000000    0.00000000
 C                 13.50000000   10.50000000    0.00000000
 C                 13.50000000   12.00000000    0.00000000
 C                 13.50000000   13.50000000    0.00000000
 C                  0.00000000    0.00000000    1.50000000
 C                  0.00000000    0.00000000    3.00000000
 C                  0.00000000    0.00000000    4.50000000
 C                  0.00000000    0.00000000    6.00000000
 C                  0.00000000    0.00000000    7.50000000
 C                  0.00000000    0.00000000    9.00000000
 C                  0.00000000    0.00000000   10.50000000
 C                  0.00000000    0.00000000   12.00000000
 C                  0.00000000    0.00000000   13.50000000
 C                  1.50000000    0.00000000    1.50000000
 C                  1.50000000    0.00000000    3.00000000
 C                  1.50000000    0.00000000    4.50000000
 C                  1.50000000    0.00000000    6.00000000
 C                  1.50000000    0.00000000    7.50000000
 C                  1.50000000    0.00000000    9.00000000
 C                  1.50000000    0.00000000   10.50000000
 C                  1.50000000    0.00000000   12.00000000
 C                  1.50000000    0.00000000   13.50000000
 C                  3.00000000    0.00000000    1.50000000
 C                  3.00000000    0.00000000    3.00000000
 C                  3.00000000    0.00000000    4.50000000
 C                  3.00000000    0.00000000    6.00000000
 C                  3.00000000    0.00000000    7.50000000
 C                  3.00000000    0.00000000    9.00000000
 C                  3.00000000    0.00000000   10.50000000
 C                  3.00000000    0.00000000   12.00000000
 C                  3.00000000    0.00000000   13.50000000
 C                  4.50000000    0.00000000    1.50000000
 C                  4.50000000    0.00000000    3.00000000
 C                  4.50000000    0.00000000    4.50000000
 C                  4.50000000    0.00000000    6.00000000
 C                  4.50000000    0.00000000    7.50000000
 C                  4.50000000    0.00000000    9.00000000
 C                  4.50000000    0.00000000   10.50000000
 C                  4.50000000    0.00000000   12.00000000
 C                  4.50000000    0.00000000   13.50000000
 C                  6.00000000    0.00000000    1.50000000
 C                  6.00000000    0.00000000    3.00000000
 C                  6.00000000    0.00000000    4.50000000
 C                  6.00000000    0.00000000    6.00000000
 C                  6.00000000    0.00000000    7.50000000
 C                  6.00000000    0.00000000    9.00000000
 C                  6.00000000    0.00000000   10.50000000
 C                  6.00000000    0.00000000   12.00000000
 C                  6.00000000    0.00000000   13.50000000
 C                  7.50000000    0.00000000    1.50000000
 C                  7.50000000    0.00000000    3.00000000
 C                  7.50000000    0.00000000    4.50000000
 C                  7.50000000    0.00000000    6.00000000
 C                  7.50000000    0.00000000    7.50000000
 C                  7.50000000    0.00000000    9.00000000
 C                  7.50000000    0.00000000   10.50000000
 C                  7.50000000    0.00000000   12.00000000
 C                  7.50000000    0.00000000   13.50000000
 C                  9.00000000    0.00000000    1.50000000
 C                  9.00000000    0.00000000    3.00000000
 C                  9.00000000    0.00000000    4.50000000
 C                  9.00000000    0.00000000    6.00000000
 C                  9.00000000    0.00000000    7.50000000
 C                  9.00000000    0.00000000    9.00000000
 C                  9.00000000    0.00000000   10.50000000
 C                  9.00000000    0.00000000   12.00000000
 C                  9.00000000    0.00000000   13.50000000
 C                 10.50000000    0.00000000    1.50000000
 C                 10.50000000    0.00000000    3.00000000
 C                 10.50000000    0.00000000    4.50000000
 C                 10.50000000    0.00000000    6.00000000
 C                 10.50000000    0.00000000    7.50000000
 C                 10.50000000    0.00000000    9.00000000
 C                 10.50000000    0.00000000   10.50000000
 C                 10.50000000    0.00000000   12.00000000
 C                 10.50000000    0.00000000   13.50000000
 C                 12.00000000    0.00000000    1.50000000
 C                 12.00000000    0.00000000    3.00000000
 C                 12.00000000    0.00000000    4.50000000
 C                 12.00000000    0.00000000    6.00000000
 C                 12.00000000    0.00000000    7.50000000
 C                 12.00000000    0.00000000    9.00000000
 C                 12.00000000    0.00000000   10.50000000
 C                 12.00000000    0.00000000   12.00000000
 C                 12.00000000    0.00000000   13.50000000
 C                 13.50000000    0.00000000    1.50000000
 C                 13.50000000    0.00000000    3.00000000
 C                 13.50000000    0.00000000    4.50000000
 C                 13.50000000    0.00000000    6.00000000
 C                 13.50000000    0.00000000    7.50000000
 C                 13.50000000    0.00000000    9.00000000
 C                 13.50000000    0.00000000   10.50000000
 C                 13.50000000    0.00000000   12.00000000
 C                 13.50000000    0.00000000   13.50000000
 C                  0.00000000    1.50000000    1.50000000
 C                  0.00000000    1.50000000    3.00000000
 C                  0.00000000    1.50000000    4.50000000
 C                  0.00000000    1.50000000    6.00000000
 C                  0.00000000    1.50000000    7.50000000
 C                  0.00000000    1.50000000    9.00000000
 C                  0.00000000    1.50000000   10.50000000
 C                  0.00000000    1.50000000   12.00000000
 C                  0.00000000    1.50000000   13.50000000
 C                  0.00000000    3.00000000    1.50000000
 C                  0.00000000    3.00000000    3.00000000
 C                  0.00000000    3.00000000    4.50000000
 C                  0.00000000    3.00000000    6.00000000
 C                  0.00000000    3.00000000    7.50000000
 C                  0.00000000    3.00000000    9.00000000
 C                  0.00000000    3.00000000   10.50000000
 C                  0.00000000    3.00000000   12.00000000
 C                  0.00000000    3.00000000   13.50000000
 C                  0.00000000    4.50000000    1.50000000
 C                  0.00000000    4.50000000    3.00000000
 C                  0.00000000    4.50000000    4.50000000
 C                  0.00000000    4.50000000    6.00000000
 C                  0.00000000    4.50000000    7.50000000
 C                  0.00000000    4.50000000    9.00000000
 C                  0.00000000    4.50000000   10.50000000
 C                  0.00000000    4.50000000   12.00000000
 C                  0.00000000    4.50000000   13.50000000
 C                  0.00000000    6.00000000    1.50000000
 C                  0.00000000    6.00000000    3.00000000
 C                  0.00000000    6.00000000    4.50000000
 C                  0.00000000    6.00000000    6.00000000
 C                  0.00000000    6.00000000    7.50000000
 C                  0.00000000    6.00000000    9.00000000
 C                  0.00000000    6.00000000   10.50000000
 C                  0.00000000    6.00000000   12.00000000
 C                  0.00000000    6.00000000   13.50000000
 C                  0.00000000    7.50000000    1.50000000
 C                  0.00000000    7.50000000    3.00000000
 C                  0.00000000    7.50000000    4.50000000
 C                  0.00000000    7.50000000    6.00000000
 C                  0.00000000    7.50000000    7.50000000
 C                  0.00000000    7.50000000    9.00000000
 C                  0.00000000    7.50000000   10.50000000
 C                  0.00000000    7.50000000   12.00000000
 C                  0.00000000    7.50000000   13.50000000
 C                  0.00000000    9.00000000    1.50000000
 C                  0.00000000    9.00000000    3.00000000
 C                  0.00000000    9.00000000    4.50000000
 C                  0.00000000    9.00000000    6.00000000
 C                  0.00000000    9.00000000    7.50000000
 C                  0.00000000    9.00000000    9.00000000
 C                  0.00000000    9.00000000   10.50000000
 C                  0.00000000    9.00000000   12.00000000
 C                  0.00000000    9.00000000   13.50000000
 C                  0.00000000   10.50000000    1.50000000
 C                  0.00000000   10.50000000    3.00000000
 C                  0.00000000   10.50000000    4.50000000
 C                  0.00000000   10.50000000    6.00000000
 C                  0.00000000   10.50000000    7.50000000
 C                  0.00000000   10.50000000    9.00000000
 C                  0.00000000   10.50000000   10.50000000
 C                  0.00000000   10.50000000   12.00000000
 C                  0.00000000   10.50000000   13.50000000
 C                  0.00000000   12.00000000    1.50000000
 C                  0.00000000   12.00000000    3.00000000
 C                  0.00000000   12.00000000    4.50000000
 C                  0.00000000   12.00000000    6.00000000
 C                  0.00000000   12.00000000    7.50000000
 C                  0.00000000   12.00000000    9.00000000
 C                  0.00000000   12.00000000   10.50000000
 C                  0.00000000   12.00000000   12.00000000
 C                  0.00000000   12.00000000   13.50000000
 C                  0.00000000   13.50000000    1.50000000
 C                  0.00000000   13.50000000    3.00000000
 C                  0.00000000   13.50000000    4.50000000
 C                  0.00000000   13.50000000    6.00000000
 C                  0.00000000   13.50000000    7.50000000
 C                  0.00000000   13.50000000    9.00000000
 C                  0.00000000   13.50000000   10.50000000
 C                  0.00000000   13.50000000   12.00000000
 C                  0.00000000   13.50000000   13.50000000
 C                  1.50000000    1.50000000    1.50000000
 C                  1.50000000    1.50000000    3.00000000
 C                  1.50000000    1.50000000    4.50000000
 C                  1.50000000    1.50000000    6.00000000
 C                  1.50000000    1.50000000    7.50000000
 C                  1.50000000    1.50000000    9.00000000
 C                  1.50000000    1.50000000   10.50000000
 C                  1.50000000    1.50000000   12.00000000
 C                  1.50000000    1.50000000   13.50000000
 C                  1.50000000    3.00000000    1.50000000
 C                  1.50000000    3.00000000    3.00000000
 C                  1.50000000    3.00000000    4.50000000
 C                  1.50000000    3.00000000    6.00000000
 C                  1.50000000    3.00000000    7.50000000
 C                  1.50000000    3.00000000    9.00000000
 C                  1.50000000    3.00000000   10.50000000
 C                  1.50000000    3.00000000   12.00000000
 C                  1.50000000    3.00000000   13.50000000
 C                  1.50000000    4.50000000    1.50000000
 C                  1.50000000    4.50000000    3.00000000
 C                  1.50000000    4.50000000    4.50000000
 C                  1.50000000    4.50000000    6.00000000
 C                  1.50000000    4.50000000    7.50000000
 C                  1.50000000    4.50000000    9.00000000
 C                  1.50000000    4.50000000   10.50000000
 C                  1.50000000    4.50000000   12.00000000
 C                  1.50000000    4.50000000   13.50000000
 C                  1.50000000    6.00000000    1.50000000
 C                  1.50000000    6.00000000    3.00000000
 C                  1.50000000    6.00000000    4.50000000
 C                  1.50000000    6.00000000    6.00000000
 C                  1.50000000    6.00000000    7.50000000
 C                  1.50000000    6.00000000    9.00000000
 C                  1.50000000    6.00000000   10.50000000
 C                  1.50000000    6.00000000   12.00000000
 C                  1.50000000    6.00000000   13.50000000
 C                  1.50000000    7.50000000    1.50000000
 C                  1.50000000    7.50000000    3.00000000
 C                  1.50000000    7.50000000    4.50000000
 C                  1.50000000    7.50000000    6.00000000
 C                  1.50000000    7.50000000    7.50000000
 C                  1.50000000    7.50000000    9.00000000
 C                  1.50000000    7.50000000   10.50000000
 C                  1.50000000    7.50000000   12.00000000
 C                  1.50000000    7.50000000   13.50000000
 C                  1.50000000    9.00000000    1.50000000
 C                  1.50000000    9.00000000    3.00000000
 C                  1.50000000    9.00000000    4.50000000
 C                  1.50000000    9.00000000    6.00000000
 C                  1.50000000    9.00000000    7.50000000
 C                  1.50000000    9.00000000    9.00000000
 C                  1.50000000    9.00000000   10.50000000
 C                  1.50000000    9.00000000   12.00000000
 C                  1.50000000    9.00000000   13.50000000
 C                  1.50000000   10.50000000    1.50000000
 C                  1.50000000   10.50000000    3.00000000
 C                  1.50000000   10.50000000    4.50000000
 C                  1.50000000   10.50000000    6.00000000
 C                  1.50000000   10.50000000    7.50000000
 C                  1.50000000   10.50000000    9.00000000
 C                  1.50000000   10.50000000   10.50000000
 C                  1.50000000   10.50000000   12.00000000
 C                  1.50000000   10.50000000   13.50000000
 C                  1.50000000   12.00000000    1.50000000
 C                  1.50000000   12.00000000    3.00000000
 C                  1.50000000   12.00000000    4.50000000
 C                  1.50000000   12.00000000    6.00000000
 C                  1.50000000   12.00000000    7.50000000
 C                  1.50000000   12.00000000    9.00000000
 C                  1.50000000   12.00000000   10.50000000
 C                  1.50000000   12.00000000   12.00000000
 C                  1.50000000   12.00000000   13.50000000
 C                  1.50000000   13.50000000    1.50000000
 C                  1.50000000   13.50000000    3.00000000
 C                  1.50000000   13.50000000    4.50000000
 C                  1.50000000   13.50000000    6.00000000
 C                  1.50000000   13.50000000    7.50000000
 C                  1.50000000   13.50000000    9.00000000
 C                  1.50000000   13.50000000   10.50000000
 C                  1.50000000   13.50000000   12.00000000
 C                  1.50000000   13.50000000   13.50000000
 C                  3.00000000    1.50000000    1.50000000
 C                  3.00000000    1.50000000    3.00000000
 C                  3.00000000    1.50000000    4.50000000
 C                  3.00000000    1.50000000    6.00000000
 C                  3.00000000    1.50000000    7.50000000
 C                  3.00000000    1.50000000    9.00000000
 C                  3.00000000    1.50000000   10.50000000
 C                  3.00000000    1.50000000   12.00000000
 C                  3.00000000    1.50000000   13.50000000
 C                  3.00000000    3.00000000    1.50000000
 C                  3.00000000    3.00000000    3.00000000
 C                  3.00000000    3.00000000    4.50000000
 C                  3.00000000    3.00000000    6.00000000
 C                  3.00000000    3.00000000    7.50000000
 C                  3.00000000    3.00000000    9.00000000
 C                  3.00000000    3.00000000   10.50000000
 C                  3.00000000    3.00000000   12.00000000
 C                  3.00000000    3.00000000   13.50000000
 C                  3.00000000    4.50000000    1.50000000
 C                  3.00000000    4.50000000    3.00000000
 C                  3.00000000    4.50000000    4.50000000
 C                  3.00000000    4.50000000    6.00000000
 C                  3.00000000    4.50000000    7.50000000
 C                  3.00000000    4.50000000    9.00000000
 C                  3.00000000    4.50000000   10.50000000
 C                  3.00000000    4.50000000   12.00000000
 C                  3.00000000    4.50000000   13.50000000
 C                  3.00000000    6.00000000    1.50000000
 C                  3.00000000    6.00000000    3.00000000
 C                  3.00000000    6.00000000    4.50000000
 C                  3.00000000    6.00000000    6.00000000
 C                  3.00000000    6.00000000    7.50000000
 C                  3.00000000    6.00000000    9.00000000
 C                  3.00000000    6.00000000   10.50000000
 C                  3.00000000    6.00000000   12.00000000
 C                  3.00000000    6.00000000   13.50000000
 C                  3.00000000    7.50000000    1.50000000
 C                  3.00000000    7.50000000    3.00000000
 C                  3.00000000    7.50000000    4.50000000
 C                  3.00000000    7.50000000    6.00000000
 C                  3.00000000    7.50000000    7.50000000
 C                  3.00000000    7.50000000    9.00000000
 C                  3.00000000    7.50000000   10.50000000
 C                  3.00000000    7.50000000   12.00000000
 C                  3.00000000    7.50000000   13.50000000
 C                  3.00000000    9.00000000    1.50000000
 C                  3.00000000    9.00000000    3.00000000
 C                  3.00000000    9.00000000    4.50000000
 C                  3.00000000    9.00000000    6.00000000
 C                  3.00000000    9.00000000    7.50000000
 C                  3.00000000    9.00000000    9.00000000
 C                  3.00000000    9.00000000   10.50000000
 C                  3.00000000    9.00000000   12.00000000
 C                  3.00000000    9.00000000   13.50000000
 C                  3.00000000   10.50000000    1.50000000
 C                  3.00000000   10.50000000    3.00000000
 C                  3.00000000   10.50000000    4.50000000
 C                  3.00000000   10.50000000    6.00000000
 C                  3.00000000   10.50000000    7.50000000
 C                  3.00000000   10.50000000    9.00000000
 C                  3.00000000   10.50000000   10.50000000
 C                  3.00000000   10.50000000   12.00000000
 C                  3.00000000   10.50000000   13.50000000
 C                  3.00000000   12.00000000    1.50000000
 C                  3.00000000   12.00000000    3.00000000
 C                  3.00000000   12.00000000    4.50000000
 C                  3.00000000   12.00000000    6.00000000
 C                  3.00000000   12.00000000    7.50000000
 C                  3.00000000   12.00000000    9.00000000
 C                  3.00000000   12.00000000   10.50000000
 C                  3.00000000   12.00000000   12.00000000
 C                  3.00000000   12.00000000   13.50000000
 C                  3.00000000   13.50000000    1.50000000
 C                  3.00000000   13.50000000    3.00000000
 C                  3.00000000   13.50000000    4.50000000
 C                  3.00000000   13.50000000    6.00000000
 C                  3.00000000   13.50000000    7.50000000
 C                  3.00000000   13.50000000    9.00000000
 C                  3.00000000   13.50000000   10.50000000
 C                  3.00000000   13.50000000   12.00000000
 C                  3.00000000   13.50000000   13.50000000
 C                  4.50000000    1.50000000    1.50000000
 C                  4.50000000    1.50000000    3.00000000
 C                  4.50000000    1.50000000    4.50000000
 C                  4.50000000    1.50000000    6.00000000
 C                  4.50000000    1.50000000    7.50000000
 C                  4.50000000    1.50000000    9.00000000
 C                  4.50000000    1.50000000   10.50000000
 C                  4.50000000    1.50000000   12.00000000
 C                  4.50000000    1.50000000   13.50000000
 C                  4.50000000    3.00000000    1.50000000
 C                  4.50000000    3.00000000    3.00000000
 C                  4.50000000    3.00000000    4.50000000
 C                  4.50000000    3.00000000    6.00000000
 C                  4.50000000    3.00000000    7.50000000
 C                  4.50000000    3.00000000    9.00000000
 C                  4.50000000    3.00000000   10.50000000
 C                  4.50000000    3.00000000   12.00000000
 C                  4.50000000    3.00000000   13.50000000
 C                  4.50000000    4.50000000    1.50000000
 C                  4.50000000    4.50000000    3.00000000
 C                  4.50000000    4.50000000    4.50000000
 C                  4.50000000    4.50000000    6.00000000
 C                  4.50000000    4.50000000    7.50000000
 C                  4.50000000    4.50000000    9.00000000
 C                  4.50000000    4.50000000   10.50000000
 C                  4.50000000    4.50000000   12.00000000
 C                  4.50000000    4.50000000   13.50000000
 C                  4.50000000    6.00000000    1.50000000
 C                  4.50000000    6.00000000    3.00000000
 C                  4.50000000    6.00000000    4.50000000
 C                  4.50000000    6.00000000    6.00000000
 C                  4.50000000    6.00000000    7.50000000
 C                  4.50000000    6.00000000    9.00000000
 C                  4.50000000    6.00000000   10.50000000
 C                  4.50000000    6.00000000   12.00000000
 C                  4.50000000    6.00000000   13.50000000
 C                  4.50000000    7.50000000    1.50000000
 C                  4.50000000    7.50000000    3.00000000
 C                  4.50000000    7.50000000    4.50000000
 C                  4.50000000    7.50000000    6.00000000
 C                  4.50000000    7.50000000    7.50000000
 C                  4.50000000    7.50000000    9.00000000
 C                  4.50000000    7.50000000   10.50000000
 C                  4.50000000    7.50000000   12.00000000
 C                  4.50000000    7.50000000   13.50000000
 C                  4.50000000    9.00000000    1.50000000
 C                  4.50000000    9.00000000    3.00000000
 C                  4.50000000    9.00000000    4.50000000
 C                  4.50000000    9.00000000    6.00000000
 C                  4.50000000    9.00000000    7.50000000
 C                  4.50000000    9.00000000    9.00000000
 C                  4.50000000    9.00000000   10.50000000
 C                  4.50000000    9.00000000   12.00000000
 C                  4.50000000    9.00000000   13.50000000
 C                  4.50000000   10.50000000    1.50000000
 C                  4.50000000   10.50000000    3.00000000
 C                  4.50000000   10.50000000    4.50000000
 C                  4.50000000   10.50000000    6.00000000
 C                  4.50000000   10.50000000    7.50000000
 C                  4.50000000   10.50000000    9.00000000
 C                  4.50000000   10.50000000   10.50000000
 C                  4.50000000   10.50000000   12.00000000
 C                  4.50000000   10.50000000   13.50000000
 C                  4.50000000   12.00000000    1.50000000
 C                  4.50000000   12.00000000    3.00000000