%chk=7.chk
#p hf/sto-3g iop(5/33=5)

test

0 1
h 0  0.0  0.0 0.309827
h 0  0.0  0.0 -0.619653

