#p hf/6-31G gfinput output=RawMatrixElement pop=full

Water 6-31G

0 1
o   0.000000000 -0.07579184359 0.0
h   0.866811829  0.6014357793  0.0
h  -0.866811829  0.6014357793  0.0

h2o_631g.matel
