#p hf/sto-3g gfinput output=RawMatrixElement pop=full

Water STO-3G

0 1
o   0.000000000 -0.07579184359 0.0
h   0.866811829  0.6014357793  0.0
h  -0.866811829  0.6014357793  0.0

h2o_sto3g.matel
